Ni2N4C2
1.0
      3.0915898       0.0000000       0.0000000
     -1.5457949       2.6773953       0.0000000
      0.0000000       0.0000000       9.2800467
  Ni    N     C   
  2     4     2   
Direct
      0.0000000       0.0000000       0.5000000
      0.0000000       0.0000000       0.0000000
      0.6666667       0.3333333       0.3832243
      0.3333333       0.6666666       0.6167757
      0.3333333       0.6666666       0.8832243
      0.6666667       0.3333333       0.1167757
      0.6666667       0.3333333       0.2500000
      0.3333333       0.6666666       0.7500000
