Ni2N4C2
1.0
      3.0535940       0.0000000       0.0000000
     -1.5267970       2.6444899       0.0000000
      0.0000000       0.0000000       9.1845062
  Ni    N     C   
  2     4     2   
Direct
      0.0000000       0.0000000       0.5000000
      0.0000000       0.0000000       0.0000000
      0.6666667       0.3333333       0.3851034
      0.3333333       0.6666666       0.6148966
      0.3333333       0.6666666       0.8851034
      0.6666667       0.3333333       0.1148966
      0.6666667       0.3333333       0.2500000
      0.3333333       0.6666666       0.7500000
